GLPSOL--GLPK LP/MIP Solver 5.0
Parameter(s) specified in the command line:
 --lp ../modeles/4_469.lp --log 4_469.log
Reading problem data from '../modeles/4_469.lp'...
1893 rows, 3760 columns, 13152 non-zeros
1876 integer variables, all of which are binary
5663 lines were read
GLPK Integer Optimizer 5.0
1893 rows, 3760 columns, 13152 non-zeros
1876 integer variables, all of which are binary
Preprocessing...
1864 constraint coefficient(s) were reduced
1893 rows, 3756 columns, 13148 non-zeros
1876 integer variables, all of which are binary
Scaling...
 A: min|aij| =  1.819e-05  max|aij| =  4.000e+00  ratio =  2.200e+05
GM: min|aij| =  4.618e-02  max|aij| =  2.166e+01  ratio =  4.690e+02
EQ: min|aij| =  2.132e-03  max|aij| =  1.000e+00  ratio =  4.690e+02
2N: min|aij| =  1.953e-03  max|aij| =  1.765e+00  ratio =  9.038e+02
Constructing initial basis...
Size of triangular part is 1893
Solving LP relaxation...
GLPK Simplex Optimizer 5.0
1893 rows, 3756 columns, 13148 non-zeros
      0: obj =   8.000000000e+00 inf =   1.950e+01 (9)
     99: obj =   4.999659029e-01 inf =   0.000e+00 (0)
*   315: obj =  -1.999968378e+00 inf =   4.044e-15 (0)
OPTIMAL LP SOLUTION FOUND
Integer optimization begins...
Long-step dual simplex will be used
+   315: mip =     not found yet >=              -inf        (1; 0)
+   625: >>>>>  -1.999968378e+00 >=  -1.999968378e+00   0.0% (311; 0)
+   625: mip =  -1.999968378e+00 >=     tree is empty   0.0% (0; 621)
INTEGER OPTIMAL SOLUTION FOUND
Time used:   0.9 secs
Memory used: 5.5 Mb (5800948 bytes)
